unsat
(forall ((A (Array (_ BitVec 12) (_ BitVec 8)))
         (B (_ BitVec 7))
         (C (_ BitVec 7))
         (D (_ BitVec 1))
         (E (_ BitVec 1))
         (F (_ BitVec 4))
         (G (_ BitVec 1))
         (H (_ BitVec 1))
         (I (_ BitVec 1))
         (J (_ BitVec 1))
         (K (_ BitVec 1))
         (L (_ BitVec 1))
         (M (_ BitVec 1))
         (N (_ BitVec 1))
         (O (_ BitVec 1))
         (P (_ BitVec 1))
         (Q (_ BitVec 4))
         (R (_ BitVec 1))
         (S (_ BitVec 32))
         (T (_ BitVec 1))
         (U (_ BitVec 32))
         (V (_ BitVec 1))
         (W (_ BitVec 1))
         (X (_ BitVec 10))
         (Y (_ BitVec 1))
         (Z (_ BitVec 1))
         (A1 (_ BitVec 5))
         (B1 (_ BitVec 1))
         (C1 (_ BitVec 1))
         (D1 (_ BitVec 1))
         (E1 (_ BitVec 1))
         (F1 (_ BitVec 1))
         (G1 (_ BitVec 4))
         (H1 (_ BitVec 1))
         (I1 (_ BitVec 32))
         (J1 (_ BitVec 32))
         (K1 (_ BitVec 32))
         (L1 (_ BitVec 1))
         (M1 (_ BitVec 1))
         (N1 (_ BitVec 1))
         (O1 (_ BitVec 1))
         (P1 (_ BitVec 3))
         (Q1 (_ BitVec 32))
         (R1 (_ BitVec 32))
         (S1 (_ BitVec 1))
         (T1 (_ BitVec 32))
         (U1 (_ BitVec 5))
         (V1 (_ BitVec 1))
         (W1 (_ BitVec 15))
         (X1 (_ BitVec 3))
         (Y1 (_ BitVec 1))
         (Z1 (_ BitVec 1))
         (A2 (_ BitVec 1))
         (B2 (_ BitVec 32))
         (C2 (_ BitVec 64))
         (D2 (_ BitVec 1))
         (E2 (_ BitVec 1))
         (F2 (_ BitVec 2))
         (G2 (_ BitVec 8))
         (H2 (_ BitVec 1))
         (I2 (_ BitVec 1))
         (J2 (_ BitVec 1))
         (K2 (_ BitVec 1))
         (L2 (_ BitVec 2))
         (M2 (_ BitVec 8))
         (N2 (_ BitVec 1))
         (O2 (_ BitVec 32))
         (P2 (_ BitVec 1))
         (Q2 (_ BitVec 3))
         (R2 (_ BitVec 3))
         (S2 (_ BitVec 32))
         (T2 (_ BitVec 1))
         (U2 (_ BitVec 32))
         (V2 (_ BitVec 2))
         (W2 (_ BitVec 1))
         (X2 (_ BitVec 1))
         (Y2 (_ BitVec 30))
         (Z2 (_ BitVec 10))
         (A3 (_ BitVec 5))
         (B3 (_ BitVec 1))
         (C3 (_ BitVec 1))
         (D3 (_ BitVec 1))
         (E3 (_ BitVec 1))
         (F3 (_ BitVec 1))
         (G3 (_ BitVec 1))
         (H3 (_ BitVec 32))
         (I3 (_ BitVec 5))
         (J3 (_ BitVec 1))
         (K3 (_ BitVec 32))
         (L3 (_ BitVec 3))
         (M3 (_ BitVec 1))
         (N3 (_ BitVec 1))
         (O3 (_ BitVec 7))
         (P3 (_ BitVec 1))
         (Q3 (_ BitVec 1))
         (R3 (_ BitVec 32))
         (S3 (_ BitVec 8))
         (T3 (_ BitVec 1))
         (U3 (_ BitVec 1))
         (V3 (_ BitVec 5))
         (W3 (_ BitVec 27))
         (X3 (_ BitVec 1))
         (Y3 (_ BitVec 32))
         (Z3 (_ BitVec 23))
         (A4 (_ BitVec 1))
         (B4 (_ BitVec 1))
         (C4 (_ BitVec 1))
         (D4 (_ BitVec 1))
         (E4 (_ BitVec 1))
         (F4 (_ BitVec 5))
         (G4 (_ BitVec 30))
         (H4 (_ BitVec 1))
         (I4 (_ BitVec 5))
         (J4 (_ BitVec 1))
         (K4 (_ BitVec 32))
         (L4 (_ BitVec 1))
         (M4 (_ BitVec 1))
         (N4 (_ BitVec 1))
         (O4 (_ BitVec 8))
         (P4 (_ BitVec 32))
         (Q4 (_ BitVec 1))
         (R4 (_ BitVec 2))
         (S4 (_ BitVec 1))
         (T4 (_ BitVec 1))
         (U4 (_ BitVec 1))
         (V4 (_ BitVec 1))
         (W4 (_ BitVec 6))
         (X4 (_ BitVec 1))
         (Y4 (_ BitVec 1))
         (Z4 (_ BitVec 7))
         (A5 (_ BitVec 6))
         (B5 (_ BitVec 1))
         (C5 (_ BitVec 37))
         (D5 (_ BitVec 1))
         (E5 (_ BitVec 1))
         (F5 (_ BitVec 32))
         (G5 (_ BitVec 1))
         (H5 (_ BitVec 1))
         (I5 (_ BitVec 1))
         (J5 (_ BitVec 4))
         (K5 (_ BitVec 1))
         (L5 (_ BitVec 1))
         (M5 (_ BitVec 1))
         (N5 (_ BitVec 1))
         (O5 (_ BitVec 1))
         (P5 (_ BitVec 1))
         (Q5 (_ BitVec 1))
         (R5 (_ BitVec 5))
         (S5 (_ BitVec 32))
         (T5 (_ BitVec 1))
         (U5 (_ BitVec 1))
         (V5 (_ BitVec 1))
         (W5 (_ BitVec 32))
         (X5 (_ BitVec 4))
         (Y5 (_ BitVec 1))
         (Z5 (_ BitVec 7))
         (A6 (_ BitVec 1))
         (B6 (_ BitVec 1))
         (C6 (_ BitVec 1))
         (D6 (_ BitVec 1))
         (E6 (_ BitVec 30))
         (F6 (_ BitVec 1))
         (G6 (_ BitVec 1))
         (H6 (_ BitVec 1))
         (I6 (_ BitVec 1))
         (J6 (_ BitVec 1))
         (K6 (_ BitVec 1))
         (L6 (_ BitVec 4))
         (M6 (_ BitVec 1))
         (N6 (_ BitVec 1))
         (O6 (_ BitVec 1))
         (P6 (_ BitVec 32))
         (Q6 (_ BitVec 1))
         (R6 (_ BitVec 1))
         (S6 (_ BitVec 1))
         (T6 (_ BitVec 1))
         (U6 (_ BitVec 4))
         (V6 (_ BitVec 1))
         (W6 (_ BitVec 4))
         (X6 (_ BitVec 1))
         (Y6 (_ BitVec 6))
         (Z6 (_ BitVec 1))
         (A7 (_ BitVec 1))
         (B7 (_ BitVec 1))
         (C7 (_ BitVec 1))
         (D7 (_ BitVec 1))
         (E7 (_ BitVec 1))
         (F7 (_ BitVec 1))
         (G7 (_ BitVec 1))
         (H7 (_ BitVec 1))
         (I7 (_ BitVec 2))
         (J7 (_ BitVec 1))
         (K7 (_ BitVec 1))
         (L7 (_ BitVec 1))
         (M7 (_ BitVec 1))
         (N7 (_ BitVec 1))
         (O7 (Array (_ BitVec 7) (_ BitVec 27)))
         (P7 (_ BitVec 1))
         (Q7 (_ BitVec 128))
         (R7 (_ BitVec 1))
         (S7 (_ BitVec 1))
         (T7 (_ BitVec 4))
         (U7 (_ BitVec 1))
         (V7 (_ BitVec 1))
         (W7 (_ BitVec 1))
         (X7 (_ BitVec 1))
         (Y7 (_ BitVec 1))
         (Z7 (_ BitVec 1))
         (A8 (_ BitVec 2))
         (B8 (_ BitVec 1))
         (C8 (Array (_ BitVec 5) (_ BitVec 32)))
         (D8 (_ BitVec 32))
         (E8 (_ BitVec 1))
         (F8 (_ BitVec 1))
         (G8 (_ BitVec 1))
         (H8 (_ BitVec 32))
         (I8 (_ BitVec 1))
         (J8 (_ BitVec 1))
         (K8 (_ BitVec 1))
         (L8 (_ BitVec 23))
         (M8 (_ BitVec 1))
         (N8 (_ BitVec 1))
         (O8 (_ BitVec 32))
         (P8 (_ BitVec 32))
         (Q8 (_ BitVec 4))
         (R8 (_ BitVec 32))
         (S8 (_ BitVec 1))
         (T8 (_ BitVec 1))
         (U8 (_ BitVec 32))
         (V8 (_ BitVec 30))
         (W8 (_ BitVec 1))
         (X8 (_ BitVec 32))
         (Y8 (_ BitVec 1))
         (Z8 (_ BitVec 1))
         (A9 (_ BitVec 1))
         (B9 (_ BitVec 1))
         (C9 (_ BitVec 37))
         (D9 (_ BitVec 1))
         (E9 (_ BitVec 1))
         (F9 (_ BitVec 1))
         (G9 (_ BitVec 1))
         (H9 (_ BitVec 1))
         (I9 (_ BitVec 7))
         (J9 (_ BitVec 1))
         (K9 (_ BitVec 6))
         (L9 (_ BitVec 27))
         (M9 (_ BitVec 30))
         (N9 (_ BitVec 1))
         (O9 (_ BitVec 1))
         (P9 (_ BitVec 1))
         (Q9 (_ BitVec 1))
         (R9 (_ BitVec 32))
         (S9 (_ BitVec 1))
         (T9 (_ BitVec 1))
         (U9 (_ BitVec 1))
         (V9 (_ BitVec 5))
         (W9 (_ BitVec 1))
         (X9 (_ BitVec 1))
         (Y9 (_ BitVec 5))
         (Z9 (_ BitVec 32))
         (A10 (_ BitVec 1))
         (B10 (_ BitVec 1))
         (C10 (_ BitVec 1))
         (D10 (_ BitVec 1))
         (E10 (_ BitVec 32))
         (F10 (_ BitVec 1))
         (G10 (_ BitVec 1)))
  (! (let ((a!1 (or (not (= S9 #b1)) (not (= ((_ extract 0 0) R4) #b1)))))
     (let ((a!2 (and (or (= G7 #b0)
                         (not (= W5 #x00000000))
                         (= F5 S5)
                         ((_ bit2bool 3) F)
                         (= M5 #b0)
                         (not ((_ bit2bool 2) F)))
                     (= L4 #b0)
                     (not (= Y1 #b1))
                     (or (not (= K6 #b0))
                         ((_ bit2bool 0) F6)
                         (not ((_ bit2bool 0) J6)))
                     (or (not ((_ bit2bool 2) L3))
                         (not (= D7 #b0))
                         (not (= D3 #b1))
                         (not ((_ bit2bool 0) H9)))
                     (or (not (= P9 #b1)) (not ((_ bit2bool 0) F)))
                     (or (= Y6 #b000000)
                         (not (= M4 #b1))
                         (not ((_ bit2bool 0) M8)))
                     (or (= F9 #b1) (not (= X7 #b1)))
                     (or (= D1 #b0)
                         (not (= X7 #b1))
                         (= ((_ extract 0 0) Y6) #b1))
                     (or ((_ bit2bool 0) N4) (not (= D7 #b1)) (= Q9 #b0))
                     (or (not (= A4 #b1))
                         (= G7 #b0)
                         (= D6 #b0)
                         ((_ bit2bool 0) W5)
                         ((_ bit2bool 2) W5)
                         ((_ bit2bool 1) W5)
                         ((_ bit2bool 3) W5)
                         ((_ bit2bool 4) W5)
                         ((_ bit2bool 5) W5)
                         ((_ bit2bool 1) F)
                         (not ((_ bit2bool 2) F)))
                     (or (not (= E5 #b1)) (= I7 #b00))
                     (or (= S8 #b0) (not ((_ bit2bool 0) S1)))
                     (or (not ((_ bit2bool 0) B4)) (not (= D7 #b1)) (= Q9 #b0))
                     (or (= M4 #b0) (= I6 #b0) (not ((_ bit2bool 0) S1)))
                     (or (not ((_ bit2bool 0) W7))
                         (not (= M4 #b1))
                         (= R5 #b01111)
                         (not (= F4 #b01111))
                         (not (= G5 #b1)))
                     (or (not ((_ bit2bool 0) F9))
                         (not (= D7 #b1))
                         (not (= K8 #b1)))
                     (or (= G7 #b0) (not (= C7 #b1)) (not (= Y5 #b1)))
                     (or (= Y4 #b0) (= G7 #b0) (not (= N7 #b0)))
                     (or (= Q9 #b0)
                         ((_ bit2bool 0) A6)
                         (not ((_ bit2bool 0) P)))
                     (or (= G7 #b0) (not ((_ bit2bool 0) A6)))
                     a!1
                     (or (not (= S9 #b1)) (= K5 #b0))
                     (or (not (= M4 #b0)) (not (= S8 #b1)))
                     (or (= G7 #b0)
                         (= D6 #b0)
                         ((_ bit2bool 0) W5)
                         ((_ bit2bool 2) W5)
                         (= D10 #b0)
                         ((_ bit2bool 1) W5)
                         ((_ bit2bool 3) W5)
                         ((_ bit2bool 4) W5)
                         ((_ bit2bool 5) W5)
                         ((_ bit2bool 1) F)
                         (not ((_ bit2bool 2) F)))
                     (or ((_ bit2bool 0) F6)
                         (not ((_ bit2bool 0) S1))
                         (= M4 #b0)
                         (= (concat J6 #xf) ((_ extract 4 0) O3)))
                     (or (= W4 #b000000)
                         (= G7 #b0)
                         (= D6 #b0)
                         ((_ bit2bool 0) W5)
                         ((_ bit2bool 2) W5)
                         ((_ bit2bool 1) W5)
                         ((_ bit2bool 3) W5)
                         ((_ bit2bool 4) W5)
                         ((_ bit2bool 5) W5)
                         ((_ bit2bool 1) F)
                         (not ((_ bit2bool 2) F)))
                     (or (= Y4 #b0) (= G7 #b0) (not (= P #b1)))
                     (or (= G7 #b0)
                         (not (= W5 #x00000000))
                         (= D6 #b0)
                         (= B5 #b0))
                     (or (= I7 #b00) (= G7 #b0) (not (= P #b1)))
                     (or (= W4 #b000000)
                         (= G7 #b0)
                         (not (= W5 #x00000000))
                         (= F5 S5)
                         ((_ bit2bool 3) F)
                         (not ((_ bit2bool 2) F)))
                     (or (= Q9 #b0)
                         (= G7 #b0)
                         (not (= W5 #x00000000))
                         (= D6 #b0))
                     (or (= G7 #b0)
                         (not (= W5 #x00000000))
                         (= D6 #b0)
                         (= S4 #b0))
                     (or (not (= W5 #x00000000)) (= D6 #b0) (= M3 #b0))
                     (or (= G7 #b0)
                         (not (= W5 #x00000000))
                         (= D6 #b0)
                         (= C10 #b1))
                     (or (= G7 #b0)
                         (not (= W5 #x00000000))
                         (= F5 S5)
                         ((_ bit2bool 3) F)
                         (= P #b1)
                         (not ((_ bit2bool 2) F)))
                     (or (= B7 #b0)
                         (= G7 #b0)
                         (not (= W5 #x00000000))
                         (= D6 #b0))
                     (or (= G7 #b0)
                         (not (= W5 #x00000000))
                         (= D6 #b0)
                         (= M5 #b0))
                     (or (= R4 #b00) (= G7 #b0) (not (= P #b1)))
                     (or (= F9 #b1) (= G7 #b0) (not (= P #b1)))
                     (or (= G7 #b0)
                         (not (= W5 #x00000000))
                         (= F5 S5)
                         ((_ bit2bool 3) F)
                         (= C10 #b1)
                         (not ((_ bit2bool 2) F))))))
       (= (INV!slice!1 A
                       B
                       C
                       D
                       E
                       F
                       G
                       H
                       I
                       J
                       K
                       L
                       M
                       N
                       O
                       P
                       Q
                       R
                       S
                       T
                       U
                       V
                       W
                       X
                       Y
                       Z
                       A1
                       B1
                       C1
                       D1
                       E1
                       F1
                       G1
                       H1
                       I1
                       J1
                       K1
                       L1
                       M1
                       N1
                       O1
                       P1
                       Q1
                       R1
                       S1
                       T1
                       U1
                       V1
                       W1
                       X1
                       Y1
                       Z1
                       A2
                       B2
                       C2
                       D2
                       E2
                       F2
                       G2
                       H2
                       I2
                       J2
                       K2
                       L2
                       M2
                       N2
                       O2
                       P2
                       Q2
                       R2
                       S2
                       T2
                       U2
                       V2
                       W2
                       X2
                       Y2
                       Z2
                       A3
                       B3
                       C3
                       D3
                       E3
                       F3
                       G3
                       H3
                       I3
                       J3
                       K3
                       L3
                       M3
                       N3
                       O3
                       P3
                       Q3
                       R3
                       S3
                       T3
                       U3
                       V3
                       W3
                       X3
                       Y3
                       Z3
                       A4
                       B4
                       C4
                       D4
                       E4
                       F4
                       G4
                       H4
                       I4
                       J4
                       K4
                       L4
                       M4
                       N4
                       O4
                       P4
                       Q4
                       R4
                       S4
                       T4
                       U4
                       V4
                       W4
                       X4
                       Y4
                       Z4
                       A5
                       B5
                       C5
                       D5
                       E5
                       F5
                       G5
                       H5
                       I5
                       J5
                       K5
                       L5
                       M5
                       N5
                       O5
                       P5
                       Q5
                       R5
                       S5
                       T5
                       U5
                       V5
                       W5
                       X5
                       Y5
                       Z5
                       A6
                       B6
                       C6
                       D6
                       E6
                       F6
                       G6
                       H6
                       I6
                       J6
                       K6
                       L6
                       M6
                       N6
                       O6
                       P6
                       Q6
                       R6
                       S6
                       T6
                       U6
                       V6
                       W6
                       X6
                       Y6
                       Z6
                       A7
                       B7
                       C7
                       D7
                       E7
                       F7
                       G7
                       H7
                       I7
                       J7
                       K7
                       L7
                       M7
                       N7
                       O7
                       P7
                       Q7
                       R7
                       S7
                       T7
                       U7
                       V7
                       W7
                       X7
                       Y7
                       Z7
                       A8
                       B8
                       C8
                       D8
                       E8
                       F8
                       G8
                       H8
                       I8
                       J8
                       K8
                       L8
                       M8
                       N8
                       O8
                       P8
                       Q8
                       R8
                       S8
                       T8
                       U8
                       V8
                       W8
                       X8
                       Y8
                       Z8
                       A9
                       B9
                       C9
                       D9
                       E9
                       F9
                       G9
                       H9
                       I9
                       J9
                       K9
                       L9
                       M9
                       N9
                       O9
                       P9
                       Q9
                       R9
                       S9
                       T9
                       U9
                       V9
                       W9
                       X9
                       Y9
                       Z9
                       A10
                       B10
                       C10
                       D10
                       E10
                       F10
                       G10)
          a!2)))
     :weight 0))
